DATASET = "thpack4";
INSTANCE = "034";

WIDTH = 233;
HEIGHT = 220;
LENGTH = 587;

NO_OF_SHAPES = 10;
size = [|
  68,35,27 |
  118,57,43 |
  73,72,36 |
  85,58,50 |
  86,56,33 |
  99,44,31 |
  93,54,49 |
  89,69,26 |
  98,90,74 |
  58,48,46 |
|];

verticality = [|
  0,1,1 |
  0,1,1 |
  0,0,1 |
  1,1,1 |
  0,1,1 |
  0,1,1 |
  1,1,1 |
  0,0,1 |
  1,1,1 |
  1,1,1 |
|];

box_count = [
  13,
  9,
  15,
  14,
  14,
  9,
  18,
  14,
  12,
  18,
];
